228 300 192 178 196 178 159 171 161 159 151 160 197 162 163 151 154 199 172 150 171 191 171 192 171 179 157 182 191 164 152 182 177 169 184 197 171 193 193 156 176 194 191 173 180 154 174 184 152 170 158 173 161 179 164 182 183 197 188 198 185 164 153 161 183 162 183 178 179 175 185 155 193 175 152 172 179 150 180 182 171 189 154 156 192 194 162 199 164 200 197 199 188 174 159 196 186 166 173 165 191 157 170 157 183 197 179 186 197 184 167 192 172 197 198 188 164 159 187 178 183 157 176 196 181 159 191 192 176 163 156 191 196 150 199 178 197 151 163 167 185 155 184 181 176 181 194 190 165 180 167 172 161 193 167 166 151 157 157 151 196 188 193 191 162 165 193 183 166 180 150 176 185 184 156 160 189 200 174 178 153 191 150 189 157 167 155 184 200 187 185 195 200 151 159 161 166 151 195 157 181 169 183 191 177 189 150 165 163 175 194 166 190 168 155 198 185 185 155 158 196 190 177 195 166 186 156 182 161 175 